% Logging successfully configured
%%%mzn-stat: initTime=0.014392221
%%%mzn-stat: objective=784
%%%mzn-stat: nodes=1093
%%%mzn-stat: restarts=0
%%%mzn-stat: peakDepth=183
%%%mzn-stat: solveTime=0.062451654
%%%mzn-stat: variables=466
%%%mzn-stat: propagators=1518
%%%mzn-stat: failures=429
%%%mzn-stat: propagations=268289
%%%mzn-stat: nogoods=429
%%%mzn-stat: numAtomicConstraintsPropagated=0
%%%mzn-stat: circuitNumber1226PropagationsThatFoundConflict=70
%%%mzn-stat: circuitNumber1226TotalFixedEdgesAtConflict=2021
%%%mzn-stat: circuitNumber1226NumberOfConflicts=70
%%%mzn-stat: circuitNumber1226PropagationsThatPruned=448
%%%mzn-stat: circuitNumber1226PropagationsTotal=1342
%%%mzn-stat: AverageConflictSize=4.207459207459207
%%%mzn-stat: NumUnitNogoodsLearned=0
%%%mzn-stat: AverageLearnedNogoodLength=10.524475524475525
%%%mzn-stat: AverageBacktrackAmount=0
%%%mzn-stat: AverageLbd=5.470862470862471
%%%mzn-stat: 2AutonomousSearchNumBackupCalled=167
%%%mzn-stat: 2AutonomousSearchNumPredicatesRemoved=0
%%%mzn-stat: 2AutonomousSearchNumCalls=168
%%%mzn-stat: 2AutonomousSearchNumPredicatesAdded=2734
%%%mzn-stat: 2AutonomousSearchAverageSizeOfHeap=16.273809523809526
%%%mzn-stat: 2AutonomousSearchNumAssignedPredicatesEncountered=2734
%%%mzn-stat-end
maxleg = 784;
succ = array1d(1..50,[15, 11, 26, 7, 12, 8, 31, 28, 14, 16, 27, 45, 4, 20, 23, 22, 39, 17, 13, 29, 35, 19, 2, 41, 10, 36, 5, 40, 34, 37, 30, 48, 21, 32, 1, 38, 24, 46, 47, 49, 33, 18, 44, 42, 50, 6, 25, 3, 43, 9]);
% time elapsed: 12.40 s
----------
%%%mzn-stat: initTime=0.014392221
%%%mzn-stat: objective=472
%%%mzn-stat: nodes=2294
%%%mzn-stat: restarts=0
%%%mzn-stat: peakDepth=183
%%%mzn-stat: solveTime=0.151831327
%%%mzn-stat: variables=466
%%%mzn-stat: propagators=1518
%%%mzn-stat: failures=1040
%%%mzn-stat: propagations=586892
%%%mzn-stat: nogoods=1040
%%%mzn-stat: numAtomicConstraintsPropagated=0
%%%mzn-stat: circuitNumber1226PropagationsThatFoundConflict=178
%%%mzn-stat: circuitNumber1226TotalFixedEdgesAtConflict=4277
%%%mzn-stat: circuitNumber1226NumberOfConflicts=178
%%%mzn-stat: circuitNumber1226PropagationsThatPruned=895
%%%mzn-stat: circuitNumber1226PropagationsTotal=2746
%%%mzn-stat: AverageConflictSize=4.8471153846153845
%%%mzn-stat: NumUnitNogoodsLearned=0
%%%mzn-stat: AverageLearnedNogoodLength=11.320192307692308
%%%mzn-stat: AverageBacktrackAmount=0
%%%mzn-stat: AverageLbd=5.446153846153846
%%%mzn-stat: 2AutonomousSearchNumBackupCalled=321
%%%mzn-stat: 2AutonomousSearchNumPredicatesRemoved=0
%%%mzn-stat: 2AutonomousSearchNumCalls=323
%%%mzn-stat: 2AutonomousSearchNumPredicatesAdded=4880
%%%mzn-stat: 2AutonomousSearchAverageSizeOfHeap=17.393188854489164
%%%mzn-stat: 2AutonomousSearchNumAssignedPredicatesEncountered=5618
%%%mzn-stat-end
maxleg = 472;
succ = array1d(1..50,[15, 23, 5, 7, 12, 8, 16, 26, 14, 25, 27, 20, 29, 50, 35, 22, 40, 17, 13, 45, 33, 19, 11, 31, 39, 3, 1, 43, 34, 37, 30, 10, 41, 32, 21, 38, 4, 46, 47, 49, 24, 48, 44, 42, 9, 6, 18, 36, 28, 2]);
% time elapsed: 12.49 s
----------
%%%mzn-stat: initTime=0.014392221
%%%mzn-stat: objective=429
%%%mzn-stat: nodes=2636
%%%mzn-stat: restarts=0
%%%mzn-stat: peakDepth=183
%%%mzn-stat: solveTime=0.172430626
%%%mzn-stat: variables=466
%%%mzn-stat: propagators=1518
%%%mzn-stat: failures=1164
%%%mzn-stat: propagations=648149
%%%mzn-stat: nogoods=1164
%%%mzn-stat: numAtomicConstraintsPropagated=0
%%%mzn-stat: circuitNumber1226PropagationsThatFoundConflict=188
%%%mzn-stat: circuitNumber1226TotalFixedEdgesAtConflict=4583
%%%mzn-stat: circuitNumber1226NumberOfConflicts=188
%%%mzn-stat: circuitNumber1226PropagationsThatPruned=988
%%%mzn-stat: circuitNumber1226PropagationsTotal=3058
%%%mzn-stat: AverageConflictSize=4.676975945017182
%%%mzn-stat: NumUnitNogoodsLearned=0
%%%mzn-stat: AverageLearnedNogoodLength=11.413230240549828
%%%mzn-stat: AverageBacktrackAmount=0
%%%mzn-stat: AverageLbd=5.393470790378007
%%%mzn-stat: 2AutonomousSearchNumBackupCalled=480
%%%mzn-stat: 2AutonomousSearchNumPredicatesRemoved=0
%%%mzn-stat: 2AutonomousSearchNumCalls=483
%%%mzn-stat: 2AutonomousSearchNumPredicatesAdded=6830
%%%mzn-stat: 2AutonomousSearchAverageSizeOfHeap=17.757763975155278
%%%mzn-stat: 2AutonomousSearchNumAssignedPredicatesEncountered=8577
%%%mzn-stat-end
maxleg = 429;
succ = array1d(1..50,[15, 23, 26, 7, 12, 38, 16, 46, 14, 25, 27, 20, 29, 50, 35, 22, 18, 42, 13, 45, 33, 19, 11, 31, 47, 5, 1, 8, 34, 37, 30, 10, 41, 32, 21, 48, 4, 36, 17, 28, 24, 44, 49, 43, 9, 6, 39, 3, 40, 2]);
% time elapsed: 12.51 s
----------
%%%mzn-stat: initTime=0.014392221
%%%mzn-stat: objective=344
%%%mzn-stat: nodes=2828
%%%mzn-stat: restarts=0
%%%mzn-stat: peakDepth=183
%%%mzn-stat: solveTime=0.176552559
%%%mzn-stat: variables=466
%%%mzn-stat: propagators=1518
%%%mzn-stat: failures=1180
%%%mzn-stat: propagations=658523
%%%mzn-stat: nogoods=1180
%%%mzn-stat: numAtomicConstraintsPropagated=0
%%%mzn-stat: circuitNumber1226PropagationsThatFoundConflict=191
%%%mzn-stat: circuitNumber1226TotalFixedEdgesAtConflict=4633
%%%mzn-stat: circuitNumber1226NumberOfConflicts=191
%%%mzn-stat: circuitNumber1226PropagationsThatPruned=1003
%%%mzn-stat: circuitNumber1226PropagationsTotal=3122
%%%mzn-stat: AverageConflictSize=4.661016949152542
%%%mzn-stat: NumUnitNogoodsLearned=0
%%%mzn-stat: AverageLearnedNogoodLength=11.371186440677967
%%%mzn-stat: AverageBacktrackAmount=0
%%%mzn-stat: AverageLbd=5.370338983050847
%%%mzn-stat: 2AutonomousSearchNumBackupCalled=631
%%%mzn-stat: 2AutonomousSearchNumPredicatesRemoved=0
%%%mzn-stat: 2AutonomousSearchNumCalls=635
%%%mzn-stat: 2AutonomousSearchNumPredicatesAdded=7857
%%%mzn-stat: 2AutonomousSearchAverageSizeOfHeap=18.288188976377953
%%%mzn-stat: 2AutonomousSearchNumAssignedPredicatesEncountered=11613
%%%mzn-stat-end
maxleg = 344;
succ = array1d(1..50,[15, 27, 26, 7, 12, 38, 16, 46, 14, 25, 21, 20, 29, 50, 23, 22, 18, 42, 13, 45, 33, 19, 11, 31, 47, 5, 35, 8, 34, 37, 30, 10, 41, 32, 1, 48, 4, 36, 17, 28, 24, 44, 49, 43, 9, 6, 39, 3, 40, 2]);
% time elapsed: 12.51 s
----------
==========
% time elapsed: 12.51 s
%%%mzn-stat: initTime=0.014392221
%%%mzn-stat: objective=344
%%%mzn-stat: nodes=2838
%%%mzn-stat: restarts=0
%%%mzn-stat: peakDepth=183
%%%mzn-stat: solveTime=0.177528427
%%%mzn-stat: variables=466
%%%mzn-stat: propagators=1518
%%%mzn-stat: failures=1189
%%%mzn-stat: propagations=661654
%%%mzn-stat: nogoods=1189
%%%mzn-stat: numAtomicConstraintsPropagated=0
%%%mzn-stat: circuitNumber1226PropagationsThatFoundConflict=196
%%%mzn-stat: circuitNumber1226TotalFixedEdgesAtConflict=4668
%%%mzn-stat: circuitNumber1226NumberOfConflicts=196
%%%mzn-stat: circuitNumber1226PropagationsThatPruned=1010
%%%mzn-stat: circuitNumber1226PropagationsTotal=3143
%%%mzn-stat: AverageConflictSize=4.656013456686291
%%%mzn-stat: NumUnitNogoodsLearned=1
%%%mzn-stat: AverageLearnedNogoodLength=11.332211942809083
%%%mzn-stat: AverageBacktrackAmount=0
%%%mzn-stat: AverageLbd=5.344827586206897
%%%mzn-stat: 2AutonomousSearchNumBackupCalled=631
%%%mzn-stat: 2AutonomousSearchNumPredicatesRemoved=0
%%%mzn-stat: 2AutonomousSearchNumCalls=635
%%%mzn-stat: 2AutonomousSearchNumPredicatesAdded=8691
%%%mzn-stat: 2AutonomousSearchAverageSizeOfHeap=18.288188976377953
%%%mzn-stat: 2AutonomousSearchNumAssignedPredicatesEncountered=11613
%%%mzn-stat-end
